(set-logic HORN)
(declare-fun state (Int (Array Int Int) (Array Int Int) (Array Int Int) (Array Int Int) Int Int (Array Int Int) (Array Int Int) Int Int Int Int Int Int Int Int Int Int Int Int (Array Int Int) Int Int Int Int Int Int Int Int Bool Bool Bool Bool Bool Int (Array Int Int)) Bool)
(assert (forall ((|A_22| Int) (|B_22| (Array Int Int)) (|C_22| (Array Int Int)) (|D_22| (Array Int Int)) (|E_22| (Array Int Int)) (|F_22| Int) (|G_22| Int) (|H_22| (Array Int Int)) (|I_22| (Array Int Int)) (|J_22| Int) (|K_22| Int) (|L_22| Int) (|M_22| Int) (|N_22| Int) (|O_22| Int) (|P_22| Int) (|Q_22| Int) (|R_22| Int) (|S_22| Int) (|T_22| Int) (|U_22| Int) (|V_22| (Array Int Int)) (|W_22| Int) (|X_22| Int) (|Y_22| Int) (|Z_22| Int) (|A1_22| Int) (|B1_22| Int) (|C1_22| Int) (|D1_22| Int) (|F1_14| Bool) (|.loc.5| Bool) (|.loc.6| Bool) (|.loc.7| Bool) (|.loc.8| Bool) (|H1_2| Int) (|F1_0| (Array Int Int)) (|.x.677| Int) (|.x.675| (Array Int Int)) (|.x.673| Int) (|.x.671| (Array Int Int)) (|.x.667| Int) (|.x.669| (Array Int Int)) (|.x.668| (Array Int Int)) (|E1_22| Bool) (|.x.678| Int) (|.x.681| Int) (|.x.684| Int) (|.x.685| Int) (|.x.687| Int) (|.x.689| Int) (|.loc.11| Bool) (|.loc.10| Bool) (|.x.693| Int) (|.x.680| Int) (|.x.694| Int) (|.loc.9| Bool) (|.x.686| Int) (|.x.683| Int) (|.loc.12| Bool) (|.x.679| Int) (|.x.688| (Array Int Int)) (|.x.682| Int) (|.x.690| Int) (|.x.696| Int) (|.x.670| (Array Int Int)) (|.x.692| Int) (|.x.674| (Array Int Int)) (|.x.672| Int) (|.x.676| Int) (|.x.691| Int) (|.x.695| Int) (|.xtv.1| Int) (|.xtv.2| (Array Int Int))) (=> (and (and (and (and .loc.5 .loc.6) (not .loc.7)) (not .loc.8)) (and (and (and (and (and (= D_22 E_22) (not F1_14)) (= F_22 G_22)) (= J_22 K_22)) (= H_22 I_22)) (= B_22 C_22))) (state |A_22| |B_22| |C_22| |D_22| |E_22| |F_22| |G_22| |H_22| |I_22| |J_22| |K_22| |L_22| |M_22| |N_22| |O_22| |P_22| |Q_22| |R_22| |S_22| |T_22| |U_22| |V_22| |W_22| |X_22| |Y_22| |Z_22| |A1_22| |B1_22| |C1_22| |D1_22| |F1_14| |.loc.5| |.loc.6| |.loc.7| |.loc.8| |H1_2| |F1_0|))))
(assert (forall ((|A_22| Int) (|B_22| (Array Int Int)) (|C_22| (Array Int Int)) (|D_22| (Array Int Int)) (|E_22| (Array Int Int)) (|F_22| Int) (|G_22| Int) (|H_22| (Array Int Int)) (|I_22| (Array Int Int)) (|J_22| Int) (|K_22| Int) (|L_22| Int) (|M_22| Int) (|N_22| Int) (|O_22| Int) (|P_22| Int) (|Q_22| Int) (|R_22| Int) (|S_22| Int) (|T_22| Int) (|U_22| Int) (|V_22| (Array Int Int)) (|W_22| Int) (|X_22| Int) (|Y_22| Int) (|Z_22| Int) (|A1_22| Int) (|B1_22| Int) (|C1_22| Int) (|D1_22| Int) (|F1_14| Bool) (|.loc.5| Bool) (|.loc.6| Bool) (|.loc.7| Bool) (|.loc.8| Bool) (|H1_2| Int) (|F1_0| (Array Int Int)) (|.x.677| Int) (|.x.675| (Array Int Int)) (|.x.673| Int) (|.x.671| (Array Int Int)) (|.x.667| Int) (|.x.669| (Array Int Int)) (|.x.668| (Array Int Int)) (|E1_22| Bool) (|.x.678| Int) (|.x.681| Int) (|.x.684| Int) (|.x.685| Int) (|.x.687| Int) (|.x.689| Int) (|.loc.11| Bool) (|.loc.10| Bool) (|.x.693| Int) (|.x.680| Int) (|.x.694| Int) (|.loc.9| Bool) (|.x.686| Int) (|.x.683| Int) (|.loc.12| Bool) (|.x.679| Int) (|.x.688| (Array Int Int)) (|.x.682| Int) (|.x.690| Int) (|.x.696| Int) (|.x.670| (Array Int Int)) (|.x.692| Int) (|.x.674| (Array Int Int)) (|.x.672| Int) (|.x.676| Int) (|.x.691| Int) (|.x.695| Int) (|.xtv.1| Int) (|.xtv.2| (Array Int Int))) (=> (and (state |A_22| |B_22| |C_22| |D_22| |E_22| |F_22| |G_22| |H_22| |I_22| |J_22| |K_22| |L_22| |M_22| |N_22| |O_22| |P_22| |Q_22| |R_22| |S_22| |T_22| |U_22| |V_22| |W_22| |X_22| |Y_22| |Z_22| |A1_22| |B1_22| |C1_22| |D1_22| |F1_14| |.loc.5| |.loc.6| |.loc.7| |.loc.8| |H1_2| |F1_0|) (let ((.def_48 (not .loc.7))) (let ((.def_50 (not .loc.8))) (let ((.def_82 (= B_22 .x.668))) (let ((.def_86 (= L_22 .x.678))) (let ((.def_89 (= O_22 .x.681))) (let ((.def_92 (= R_22 .x.684))) (let ((.def_95 (= S_22 .x.685))) (let ((.def_98 (= U_22 .x.687))) (let ((.def_101 (= W_22 .x.689))) (let ((.def_103 (not .loc.5))) (let ((.def_115 (= F1_14 E1_22))) (let ((.def_122 (not .loc.10))) (let ((.def_125 (= N_22 0))) (let ((.def_127 (and .def_82 .def_86))) (let ((.def_132 (and .def_101 (and .def_98 (and .def_95 (and .def_92 (and .def_89 .def_127))))))) (let ((.def_136 (not .loc.11))) (let ((.def_138 (not .loc.6))) (let ((.def_143 (= A1_22 .x.693))) (let ((.def_145 (= N_22 .x.680))) (let ((.def_148 (= B1_22 .x.694))) (let ((.def_151 (not .loc.9))) (let ((.def_165 (<= C1_22 Q_22))) (let ((.def_180 (= T_22 .x.686))) (let ((.def_182 (= Q_22 .x.683))) (let ((.def_192 (and .def_89 (and .def_127 .def_145)))) (let ((.def_194 (and .def_95 (and .def_92 .def_192)))) (let ((.def_226 (and .def_86 (and F1_14 .def_82)))) (let ((.def_236 (and .def_148 (and .def_143 (and .def_101 (and .def_98 (and .def_180 (and .def_95 (and .def_92 (and .def_182 (and .def_89 (and .def_145 .def_226)))))))))))) (let ((.def_254 (and .def_148 (and .def_143 (and .def_101 (and .def_98 (and .def_180 (and .def_95 (and .def_92 (and .def_182 .def_192)))))))))) (let ((.def_275 (not .loc.12))) (let ((.def_288 (<= 100000 M_22))) (let ((.def_289 (or F1_14 .def_288))) (let ((.def_293 (= M_22 .x.679))) (let ((.def_295 (and .loc.5 .def_254))) (let ((.def_307 (or F1_14 (= (+ M_22 (* (- 1) .x.679)) (- 1))))) (let ((.def_314 (and .def_89 (and .def_145 (and .def_127 .def_293))))) (let ((.def_322 (and .def_148 (and .def_143 (and .def_101 (and .def_98 (and .def_180 (and .def_95 (and .def_92 (and .def_182 .def_314)))))))))) (let ((.def_336 (and .def_89 (and .def_145 (and .def_226 .def_293))))) (let ((.def_355 (= .x.679 0))) (let ((.def_368 (= V_22 .x.688))) (let ((.def_370 (= P_22 .x.682))) (let ((.def_373 (= X_22 .x.690))) (let ((.def_376 (= D1_22 .x.696))) (let ((.def_382 (<= 0 H1_2))) (let ((.def_383 (not .def_382))) (let ((.def_412 (or F1_14 (and (= H1_2 (select (select D_22 L_22) (+ (* 4 M_22) U_22))) (not .def_288))))) (let ((.def_423 (and .def_101 (and .def_368 (and .def_98 (and .def_180 (and .def_95 (and .def_92 (and .def_182 (and .def_314 .def_370)))))))))) (let ((.def_502 (= H_22 .x.674))) (let ((.def_504 (= F_22 .x.672))) (let ((.def_507 (= J_22 .x.676))) (let ((.def_510 (= Y_22 .x.691))) (let ((.def_514 (= C1_22 .x.695))) (let ((.def_547 (store F1_0 .x.678 1))) (let ((.def_574 (= D_22 .x.670))) (and (and (= K_22 .x.677) (and (= I_22 .x.675) (and (= G_22 .x.673) (and (= E_22 .x.671) (and (= A_22 .x.667) (= C_22 .x.669)))))) (or (or (and (or (and (or (or (or (or (or (and (or (or (or (or (and (or (or (and (or (or (or (and .def_48 (or (and (or (and (or (and (or (and (and (and (and (and (and (and (and .def_82 E1_22) .def_86) .def_89) .def_92) .def_95) .def_98) .def_101) .def_103) (and (or F1_14 (and (= .x.689 0) (= .x.668 (store (store B_22 L_22 0) S_22 0)))) (and (and .loc.5 (or E1_22 (= .x.684 .x.689))) .def_115))) (and (and .loc.6 .loc.11) .def_122)) (and (or F1_14 .def_125) (and (and (and .def_115 (and .loc.10 (and .loc.5 .def_132))) .def_136) .def_138))) (and (and (and .def_143 .def_145) .def_148) .def_151)) (and (or F1_14 (and (= .x.693 .x.680) (and (= .x.693 (ite (<= 0 .x.694) 1 0)) (and (= .x.694 (select (select D_22 S_22) (+ O_22 (* 4 Q_22)))) (not .def_165))))) (and .def_138 (and .def_136 (and .def_115 (and .def_122 (and .loc.9 (and .def_103 .def_132)))))))) (and .loc.8 (and .def_180 .def_182))) (and (or E1_22 (= (+ Q_22 (* (- 1) .x.683)) (- 1))) (and .def_50 (and .def_138 (and .def_136 (and .def_115 (and .def_122 (and .def_151 (and .def_103 (and .def_143 (and .def_101 (and .def_98 .def_194))))))))))))) (and (or F1_14 (= .x.683 0)) (and .def_50 (and .def_136 (and .def_115 (and .def_122 (and .def_151 (and .loc.7 (and .loc.6 (and .loc.5 (and .def_148 (and .def_143 (and .def_101 (and .def_98 (and .def_180 .def_194))))))))))))))) (and .def_138 (and .def_136 (and .def_115 (and .loc.10 (and .loc.9 (and .def_48 (and .def_103 (and .loc.8 .def_236))))))))) (and (or F1_14 .def_165) (and .def_138 (and .def_136 (and .def_115 (and .loc.10 (and .loc.9 (and .def_48 (and .def_103 (and .loc.8 .def_254)))))))))) .loc.12) (and (and .def_50 (and .def_115 (and .loc.11 (and .loc.10 (and .loc.9 (and .def_103 (and .loc.7 (and .loc.6 .def_236)))))))) .def_275)) (and (and .def_275 (and .def_50 (and .def_115 (and .loc.11 (and .loc.10 (and .loc.9 (and .def_103 (and .loc.7 (and .loc.6 .def_254))))))))) .def_289)) .def_293) (and (and .def_275 (and .def_50 (and .def_138 (and .def_115 (and .def_151 (and .loc.11 (and .loc.10 (and .def_48 .def_295)))))))) .def_307)) (and (or F1_14 (not .def_125)) (and .def_275 (and .def_138 (and .def_136 (and .def_115 (and .def_122 (and .def_151 (and .def_48 (and .loc.8 (and .loc.5 .def_322))))))))))) (and .def_275 (and .def_136 (and .def_115 (and .def_122 (and .def_151 (and .def_48 (and .def_103 (and .loc.8 (and .loc.6 (and .def_148 (and .def_143 (and .def_101 (and .def_98 (and .def_180 (and .def_95 (and .def_92 (and .def_182 .def_336)))))))))))))))))) (and (or F1_14 .def_355) (and .def_275 (and .def_50 (and .def_138 (and .def_115 (and .def_151 (and .loc.11 (and .loc.10 (and .loc.7 .def_295)))))))))) (and (and (and .def_368 .def_370) .def_373) .def_376)) (and (and (or E1_22 (and (and (= (+ P_22 (* (- 1) .x.682)) (- 1)) .def_383) (= .x.688 (store V_22 P_22 (select (select .x.670 .x.678) (+ .x.687 (* 4 .x.679))))))) (and .def_275 (and .def_50 (and .def_136 (and .def_115 (and .def_122 (and .loc.9 (and .def_103 (and .loc.7 (and .loc.6 .def_322)))))))))) .def_412)) (and (or E1_22 .def_382) (and .def_412 (and .def_275 (and .def_50 (and .def_136 (and .def_115 (and .def_122 (and .loc.9 (and .def_103 (and .loc.7 (and .loc.6 (and .def_376 (and .def_148 (and .def_143 .def_423))))))))))))))) (and .def_275 (and .def_50 (and .def_138 (and .def_115 (and .def_122 (and .loc.11 (and .loc.9 (and .def_103 (and .loc.7 (and .def_376 (and .def_148 (and .def_143 (and .def_373 (and .def_101 (and .def_368 (and .def_98 (and .def_180 (and .def_95 (and .def_92 (and .def_182 (and .def_336 .def_370)))))))))))))))))))))) (and .def_289 (and .def_275 (and .def_50 (and .def_138 (and .def_115 (and .def_122 (and .loc.11 (and .loc.9 (and .def_103 (and .loc.7 (and .def_376 (and .def_148 (and .def_143 (and .def_373 .def_423))))))))))))))) (and .def_307 (and .def_275 (and .def_50 (and .def_115 (and .def_122 (and .def_151 (and .loc.11 (and .def_48 (and .def_103 (and .loc.6 (and .def_376 (and .def_148 (and .def_143 (and .def_373 (and .def_101 (and .def_368 (and .def_98 (and .def_180 (and .def_95 (and .def_92 (and .def_182 (and .def_192 .def_370))))))))))))))))))))))) (and (and (= Z_22 .x.692) (and (and (and .def_502 .def_504) .def_507) .def_510)) .def_514)) (and (or F1_14 (and (and (= .x.676 0) (= .x.672 0)) (= F1_0 (store B_22 0 0)))) (and (or E1_22 (and (and (and (and (and (and (and (and (and (and .def_355 (and (and (not (<= .x.667 .x.685)) (not (<= .x.667 .x.678))) (not (= .x.678 0)))) (= .x.682 0)) (= .x.695 0)) (= .x.681 0)) (not (= .x.685 0))) (= .x.687 0)) (= (select F1_0 .x.678) 0)) (= (select .def_547 .x.685) 0)) (= .x.674 (store (store H_22 .x.678 400000) .x.685 400000))) (= .x.668 (store .def_547 .x.685 1)))) (and .def_275 (and .def_50 (and .def_115 (and .def_122 (and .def_151 (and .loc.11 (and .def_48 (and .loc.6 (and .loc.5 (and .def_143 (and .def_92 .def_145)))))))))))))) .def_574) (and (or E1_22 (and (and .def_382 (= (+ C1_22 (* (- 1) .x.695)) (- 1))) (= .x.670 (store D_22 .x.685 (store (select D_22 .x.685) (+ (* 4 C1_22) .x.681) (select (select D_22 .x.678) (+ .x.687 (* 4 .x.679)))))))) (and .def_412 (and .def_275 (and .def_50 (and .def_138 (and .def_136 (and .def_115 (and .def_151 (and .loc.10 (and .def_103 (and .loc.7 (and .def_376 (and .def_148 (and .def_143 (and .def_373 (and .def_101 (and .def_368 (and .def_98 (and .def_180 (and .def_95 (and .def_92 (and .def_182 (and .def_370 (and .def_89 (and .def_145 (and .def_293 (and .def_86 (and .def_507 (and .def_502 (and .def_82 .def_504))))))))))))))))))))))))))))))) (and (or E1_22 .def_383) (and .def_412 (and .def_275 (and .def_50 (and .def_138 (and .def_136 (and .def_115 (and .def_151 (and .loc.10 (and .def_103 (and .loc.7 (and .def_376 (and .def_514 (and .def_148 (and .def_143 (and .def_510 (and .def_373 (and .def_101 (and .def_368 (and .def_98 (and .def_180 (and .def_95 (and .def_92 (and .def_182 (and .def_370 (and .def_89 (and .def_145 (and .def_293 (and .def_86 (and .def_507 (and .def_502 (and .def_504 (and .def_82 .def_574)))))))))))))))))))))))))))))))))))))))))))))))))))))))))))))))))))))))))))))))))))))))))) (state |.x.667| |.x.668| |.x.669| |.x.670| |.x.671| |.x.672| |.x.673| |.x.674| |.x.675| |.x.676| |.x.677| |.x.678| |.x.679| |.x.680| |.x.681| |.x.682| |.x.683| |.x.684| |.x.685| |.x.686| |.x.687| |.x.688| |.x.689| |.x.690| |.x.691| |.x.692| |.x.693| |.x.694| |.x.695| |.x.696| |E1_22| |.loc.9| |.loc.10| |.loc.11| |.loc.12| |.xtv.1| |.xtv.2|))))
(assert (forall ((|A_22| Int) (|B_22| (Array Int Int)) (|C_22| (Array Int Int)) (|D_22| (Array Int Int)) (|E_22| (Array Int Int)) (|F_22| Int) (|G_22| Int) (|H_22| (Array Int Int)) (|I_22| (Array Int Int)) (|J_22| Int) (|K_22| Int) (|L_22| Int) (|M_22| Int) (|N_22| Int) (|O_22| Int) (|P_22| Int) (|Q_22| Int) (|R_22| Int) (|S_22| Int) (|T_22| Int) (|U_22| Int) (|V_22| (Array Int Int)) (|W_22| Int) (|X_22| Int) (|Y_22| Int) (|Z_22| Int) (|A1_22| Int) (|B1_22| Int) (|C1_22| Int) (|D1_22| Int) (|F1_14| Bool) (|.loc.5| Bool) (|.loc.6| Bool) (|.loc.7| Bool) (|.loc.8| Bool) (|H1_2| Int) (|F1_0| (Array Int Int)) (|.x.677| Int) (|.x.675| (Array Int Int)) (|.x.673| Int) (|.x.671| (Array Int Int)) (|.x.667| Int) (|.x.669| (Array Int Int)) (|.x.668| (Array Int Int)) (|E1_22| Bool) (|.x.678| Int) (|.x.681| Int) (|.x.684| Int) (|.x.685| Int) (|.x.687| Int) (|.x.689| Int) (|.loc.11| Bool) (|.loc.10| Bool) (|.x.693| Int) (|.x.680| Int) (|.x.694| Int) (|.loc.9| Bool) (|.x.686| Int) (|.x.683| Int) (|.loc.12| Bool) (|.x.679| Int) (|.x.688| (Array Int Int)) (|.x.682| Int) (|.x.690| Int) (|.x.696| Int) (|.x.670| (Array Int Int)) (|.x.692| Int) (|.x.674| (Array Int Int)) (|.x.672| Int) (|.x.676| Int) (|.x.691| Int) (|.x.695| Int) (|.xtv.1| Int) (|.xtv.2| (Array Int Int))) (=> (state |A_22| |B_22| |C_22| |D_22| |E_22| |F_22| |G_22| |H_22| |I_22| |J_22| |K_22| |L_22| |M_22| |N_22| |O_22| |P_22| |Q_22| |R_22| |S_22| |T_22| |U_22| |V_22| |W_22| |X_22| |Y_22| |Z_22| |A1_22| |B1_22| |C1_22| |D1_22| |F1_14| |.loc.5| |.loc.6| |.loc.7| |.loc.8| |H1_2| |F1_0|) (not (and F1_14 (and .loc.8 (and .loc.7 (and (not .loc.5) (not .loc.6)))))))))
(check-sat)
